peakDumbCharging = 29600; 
Machine = anon_enum(16); 
machineSpeed = [3700,3700,3700,3700,3700,3700,3700,3700,3700,3700,3700,3700,3700,3700,3700,3700]; 
machineLoad = [3700,3700,3700,3700,3700,3700,3700,3700,3700,3700,3700,3700,3700,3700,3700,3700]; 
Car = anon_enum(37); 
demandCar = [2600,28440,14160,2640,3640,3280,4040,2040,3520,5080,42800,7280,6440,3160,12440,8600,1480,4960,5120,21320,15920,2920,4760,5320,7400,13360,4600,17520,6960,5760,640,19600,11240,16520,27480,5680,6480]; 
arrivalCar = [72,70,65,64,64,63,60,59,57,57,56,55,55,54,53,51,51,49,46,45,45,45,45,43,43,41,40,40,38,35,35,34,34,31,31,30,29]; 
departureCar = [74,79,72,66,67,66,63,61,60,59,72,60,59,56,57,58,52,52,49,55,51,49,49,50,46,48,44,47,43,38,37,43,42,41,41,34,35]; 
